param n := 60;
param c := 3000
param : V : p w :=
   0	 506	 496
   1	 260	 250
   2	 264	 254
   3	 406	 396
   4	 280	 270
   5	 344	 334
   6	 493	 483
   7	 262	 252
   8	 275	 265
   9	 473	 463
  10	 271	 261
  11	 286	 276
  12	 399	 389
  13	 293	 283
  14	 338	 328
  15	 390	 380
  16	 278	 268
  17	 362	 352
  18	 426	 416
  19	 292	 282
  20	 312	 302
  21	 398	 388
  22	 262	 252
  23	 370	 360
  24	 499	 489
  25	 262	 252
  26	 269	 259
  27	 443	 433
  28	 291	 281
  29	 296	 286
  30	 390	 380
  31	 295	 285
  32	 345	 335
  33	 382	 372
  34	 311	 301
  35	 337	 327
  36	 382	 372
  37	 291	 281
  38	 357	 347
  39	 365	 355
  40	 315	 305
  41	 350	 340
  42	 442	 432
  43	 288	 278
  44	 300	 290
  45	 472	 462
  46	 272	 262
  47	 286	 276
  48	 494	 484
  49	 262	 252
  50	 274	 264
  51	 432	 422
  52	 292	 282
  53	 306	 296
  54	 479	 469
  55	 272	 262
  56	 279	 269
  57	 368	 358
  58	 291	 281
  59	 371	 361
;

set E :=
   0	   3
   0	   5
   0	   6
   0	   7
   0	   8
   0	   9
   0	  10
   0	  11
   0	  13
   0	  14
   0	  18
   0	  19
   0	  20
   0	  23
   0	  24
   0	  25
   0	  27
   0	  28
   0	  29
   0	  30
   0	  31
   0	  33
   0	  34
   0	  35
   0	  36
   0	  41
   0	  44
   0	  48
   0	  49
   0	  50
   0	  52
   0	  55
   0	  57
   0	  59
   1	   4
   1	   6
   1	  11
   1	  14
   1	  15
   1	  17
   1	  19
   1	  21
   1	  24
   1	  25
   1	  26
   1	  29
   1	  30
   1	  31
   1	  32
   1	  33
   1	  34
   1	  35
   1	  39
   1	  40
   1	  46
   1	  47
   1	  49
   1	  53
   1	  56
   1	  57
   2	   3
   2	   4
   2	   6
   2	   7
   2	   8
   2	   9
   2	  10
   2	  12
   2	  17
   2	  19
   2	  20
   2	  21
   2	  24
   2	  27
   2	  28
   2	  31
   2	  32
   2	  36
   2	  37
   2	  39
   2	  40
   2	  41
   2	  46
   2	  48
   2	  49
   2	  50
   2	  51
   2	  53
   2	  54
   2	  56
   2	  58
   3	   4
   3	   5
   3	   7
   3	   8
   3	  10
   3	  11
   3	  13
   3	  17
   3	  18
   3	  20
   3	  26
   3	  27
   3	  35
   3	  38
   3	  39
   3	  43
   3	  44
   3	  46
   3	  50
   3	  52
   3	  55
   3	  58
   3	  59
   4	   5
   4	   7
   4	   9
   4	  17
   4	  18
   4	  19
   4	  21
   4	  22
   4	  24
   4	  25
   4	  27
   4	  28
   4	  33
   4	  34
   4	  36
   4	  37
   4	  39
   4	  41
   4	  42
   4	  43
   4	  44
   4	  47
   4	  49
   4	  50
   4	  51
   4	  52
   4	  53
   4	  54
   4	  55
   4	  58
   5	  14
   5	  16
   5	  18
   5	  20
   5	  22
   5	  27
   5	  28
   5	  31
   5	  33
   5	  37
   5	  38
   5	  40
   5	  41
   5	  42
   5	  45
   5	  46
   5	  49
   5	  51
   5	  52
   5	  53
   5	  54
   5	  55
   5	  56
   5	  57
   5	  59
   6	   7
   6	  14
   6	  15
   6	  17
   6	  19
   6	  20
   6	  22
   6	  23
   6	  24
   6	  29
   6	  30
   6	  31
   6	  35
   6	  36
   6	  38
   6	  40
   6	  41
   6	  44
   6	  49
   6	  50
   6	  54
   6	  55
   6	  57
   7	   8
   7	  11
   7	  12
   7	  13
   7	  14
   7	  15
   7	  16
   7	  18
   7	  19
   7	  25
   7	  26
   7	  27
   7	  28
   7	  32
   7	  33
   7	  34
   7	  35
   7	  37
   7	  41
   7	  44
   7	  46
   7	  49
   7	  52
   7	  54
   7	  55
   7	  58
   7	  59
   8	   9
   8	  12
   8	  15
   8	  16
   8	  17
   8	  18
   8	  19
   8	  21
   8	  24
   8	  27
   8	  28
   8	  30
   8	  31
   8	  32
   8	  36
   8	  37
   8	  38
   8	  39
   8	  44
   8	  45
   8	  48
   8	  49
   8	  51
   8	  53
   8	  55
   8	  56
   8	  58
   9	  11
   9	  13
   9	  15
   9	  18
   9	  19
   9	  21
   9	  23
   9	  27
   9	  29
   9	  30
   9	  31
   9	  32
   9	  33
   9	  34
   9	  38
   9	  39
   9	  41
   9	  45
   9	  49
   9	  52
   9	  54
   9	  55
   9	  56
   9	  57
   9	  58
   9	  59
  10	  11
  10	  12
  10	  13
  10	  14
  10	  15
  10	  16
  10	  17
  10	  20
  10	  21
  10	  22
  10	  24
  10	  28
  10	  30
  10	  36
  10	  38
  10	  39
  10	  42
  10	  43
  10	  45
  10	  47
  10	  49
  10	  50
  10	  52
  10	  53
  10	  56
  10	  57
  10	  59
  11	  12
  11	  16
  11	  17
  11	  18
  11	  22
  11	  23
  11	  28
  11	  31
  11	  32
  11	  33
  11	  35
  11	  40
  11	  42
  11	  47
  11	  48
  11	  50
  11	  53
  11	  54
  11	  55
  11	  56
  11	  59
  12	  13
  12	  17
  12	  18
  12	  19
  12	  21
  12	  23
  12	  24
  12	  30
  12	  31
  12	  36
  12	  38
  12	  40
  12	  41
  12	  42
  12	  43
  12	  47
  12	  49
  12	  52
  12	  54
  12	  56
  12	  57
  12	  59
  13	  14
  13	  17
  13	  20
  13	  21
  13	  22
  13	  23
  13	  24
  13	  27
  13	  28
  13	  29
  13	  31
  13	  32
  13	  34
  13	  35
  13	  36
  13	  38
  13	  40
  13	  41
  13	  43
  13	  44
  13	  45
  13	  46
  13	  49
  13	  51
  13	  52
  13	  53
  13	  54
  13	  57
  13	  58
  13	  59
  14	  15
  14	  16
  14	  17
  14	  18
  14	  19
  14	  20
  14	  23
  14	  24
  14	  26
  14	  27
  14	  28
  14	  29
  14	  30
  14	  31
  14	  32
  14	  34
  14	  37
  14	  39
  14	  40
  14	  41
  14	  44
  14	  45
  14	  46
  14	  47
  14	  50
  14	  55
  14	  56
  14	  57
  14	  59
  15	  16
  15	  20
  15	  22
  15	  23
  15	  27
  15	  28
  15	  29
  15	  30
  15	  34
  15	  38
  15	  40
  15	  42
  15	  52
  15	  54
  15	  56
  15	  57
  15	  58
  16	  17
  16	  21
  16	  22
  16	  23
  16	  27
  16	  28
  16	  31
  16	  32
  16	  34
  16	  35
  16	  36
  16	  40
  16	  43
  16	  44
  16	  46
  16	  48
  16	  50
  16	  54
  16	  56
  16	  57
  16	  58
  16	  59
  17	  20
  17	  23
  17	  24
  17	  25
  17	  26
  17	  29
  17	  30
  17	  33
  17	  35
  17	  37
  17	  39
  17	  40
  17	  41
  17	  42
  17	  45
  17	  47
  17	  49
  17	  51
  17	  53
  17	  55
  17	  56
  17	  57
  17	  58
  17	  59
  18	  19
  18	  26
  18	  27
  18	  29
  18	  30
  18	  31
  18	  32
  18	  34
  18	  35
  18	  37
  18	  39
  18	  40
  18	  41
  18	  43
  18	  44
  18	  45
  18	  46
  18	  47
  18	  48
  18	  55
  19	  20
  19	  21
  19	  23
  19	  25
  19	  26
  19	  31
  19	  32
  19	  33
  19	  36
  19	  37
  19	  38
  19	  40
  19	  41
  19	  42
  19	  43
  19	  45
  19	  47
  19	  48
  19	  51
  19	  53
  19	  56
  19	  57
  20	  21
  20	  22
  20	  24
  20	  26
  20	  28
  20	  29
  20	  30
  20	  31
  20	  32
  20	  33
  20	  34
  20	  36
  20	  37
  20	  39
  20	  41
  20	  43
  20	  44
  20	  45
  20	  46
  20	  51
  20	  52
  20	  54
  20	  57
  21	  23
  21	  27
  21	  28
  21	  30
  21	  32
  21	  33
  21	  34
  21	  36
  21	  38
  21	  42
  21	  43
  21	  44
  21	  45
  21	  47
  21	  54
  21	  55
  21	  56
  21	  57
  21	  59
  22	  23
  22	  24
  22	  25
  22	  28
  22	  30
  22	  32
  22	  33
  22	  36
  22	  37
  22	  38
  22	  41
  22	  42
  22	  43
  22	  44
  22	  46
  22	  47
  22	  48
  22	  51
  22	  52
  22	  53
  22	  54
  22	  57
  23	  26
  23	  27
  23	  30
  23	  31
  23	  33
  23	  34
  23	  38
  23	  39
  23	  41
  23	  43
  23	  46
  23	  50
  23	  51
  23	  54
  23	  55
  24	  26
  24	  28
  24	  29
  24	  30
  24	  31
  24	  36
  24	  38
  24	  40
  24	  42
  24	  43
  24	  47
  24	  49
  24	  53
  24	  55
  24	  56
  24	  57
  24	  58
  24	  59
  25	  28
  25	  30
  25	  31
  25	  33
  25	  36
  25	  39
  25	  40
  25	  44
  25	  47
  25	  48
  25	  49
  25	  50
  25	  51
  25	  52
  25	  57
  25	  58
  26	  27
  26	  28
  26	  29
  26	  30
  26	  31
  26	  33
  26	  37
  26	  40
  26	  42
  26	  43
  26	  46
  26	  50
  26	  51
  26	  52
  26	  53
  26	  54
  26	  55
  26	  56
  26	  57
  27	  32
  27	  33
  27	  35
  27	  38
  27	  45
  27	  46
  27	  47
  27	  48
  27	  50
  27	  51
  27	  52
  27	  53
  27	  54
  27	  55
  27	  56
  27	  57
  27	  58
  28	  30
  28	  31
  28	  33
  28	  35
  28	  37
  28	  38
  28	  40
  28	  41
  28	  43
  28	  45
  28	  48
  28	  49
  28	  52
  28	  53
  28	  54
  28	  56
  28	  58
  28	  59
  29	  30
  29	  31
  29	  34
  29	  35
  29	  36
  29	  37
  29	  38
  29	  42
  29	  43
  29	  46
  29	  47
  29	  50
  29	  51
  29	  53
  29	  57
  29	  58
  29	  59
  30	  31
  30	  32
  30	  34
  30	  37
  30	  40
  30	  41
  30	  42
  30	  43
  30	  44
  30	  46
  30	  52
  31	  33
  31	  34
  31	  36
  31	  39
  31	  43
  31	  44
  31	  47
  31	  51
  31	  52
  31	  55
  31	  56
  31	  59
  32	  34
  32	  35
  32	  36
  32	  38
  32	  41
  32	  42
  32	  43
  32	  46
  32	  47
  32	  48
  32	  49
  32	  51
  32	  54
  32	  56
  32	  57
  32	  59
  33	  36
  33	  42
  33	  43
  33	  44
  33	  49
  33	  50
  33	  51
  33	  53
  33	  55
  33	  58
  33	  59
  34	  35
  34	  45
  34	  51
  34	  53
  34	  54
  34	  55
  34	  58
  34	  59
  35	  38
  35	  41
  35	  43
  35	  44
  35	  45
  35	  46
  35	  47
  35	  48
  35	  49
  35	  50
  35	  51
  35	  52
  35	  54
  36	  38
  36	  40
  36	  42
  36	  45
  36	  46
  36	  47
  36	  52
  36	  54
  36	  58
  37	  40
  37	  42
  37	  43
  37	  44
  37	  45
  37	  48
  37	  49
  37	  51
  37	  53
  37	  54
  37	  55
  37	  56
  38	  40
  38	  41
  38	  43
  38	  44
  38	  48
  38	  50
  38	  53
  38	  54
  38	  55
  38	  57
  38	  58
  38	  59
  39	  40
  39	  42
  39	  43
  39	  44
  39	  46
  39	  49
  39	  51
  39	  52
  39	  54
  39	  55
  39	  58
  39	  59
  40	  43
  40	  44
  40	  46
  40	  47
  40	  51
  40	  53
  40	  54
  40	  56
  40	  57
  41	  44
  41	  48
  41	  49
  41	  50
  41	  51
  41	  52
  41	  53
  41	  55
  41	  57
  41	  59
  42	  43
  42	  44
  42	  46
  42	  49
  42	  53
  42	  55
  42	  56
  42	  57
  42	  58
  43	  45
  43	  47
  43	  48
  43	  49
  43	  51
  43	  52
  43	  53
  43	  54
  43	  59
  44	  45
  44	  49
  44	  50
  44	  51
  44	  52
  44	  54
  44	  57
  45	  47
  45	  51
  45	  52
  45	  53
  45	  55
  45	  56
  45	  57
  45	  58
  45	  59
  46	  47
  46	  48
  46	  49
  46	  55
  46	  57
  46	  58
  47	  49
  47	  55
  47	  56
  47	  57
  47	  59
  48	  50
  48	  51
  48	  53
  48	  54
  48	  59
  49	  50
  49	  51
  49	  53
  49	  56
  49	  58
  50	  51
  50	  53
  50	  55
  51	  54
  51	  55
  51	  56
  51	  57
  51	  59
  52	  57
  52	  58
  52	  59
  53	  54
  53	  57
  53	  58
  53	  59
  54	  59
  55	  56
  56	  59
  57	  58
  57	  59
;
